30	100	100	100
27	31	36
6	49	24
44	23	24
7	7	29
31	42	39
21	22	49
13	30	33
4	26	49
34	35	28
6	40	35
6	29	23
23	40	34
49	38	32
8	3	37
34	3	30
9	12	22
42	7	17
47	41	14
3	12	49
24	43	8
33	44	6
48	36	48
26	43	32
42	6	31
10	32	3
2	30	7
5	9	4
20	7	48
46	35	2
3	3	34
